(set-logic QF_S)
(declare-fun I () String)
(declare-fun H () String)
(declare-fun F () String)
(declare-fun G () String)
(declare-fun J () String)
(assert (= (str.++  F "aa" F "abaaaaba" I "ba")  (str.++  "a" G G "aa" H H H H "b" H H "b" J J "baa") ))
(check-sat)
(get-model)
